num_offers = 35;
num_halls = 10;
start=[28,76,21,26,65,9,28,59,37,46,22,30,35,48,39,3,20,77,7,4,11,61,86,5,11,29,30,19,65,39,38,44,27,9,31];
end=[58,96,41,59,68,53,53,99,46,96,84,91,40,61,44,69,35,82,72,92,53,89,92,15,26,56,38,37,96,75,59,80,64,45,70];
price=[2415,1636,229,884,270,2641,489,3436,473,3525,5597,5077,566,1094,471,5749,714,206,3052,7673,3641,295,423,614,461,999,367,242,412,3509,1332,2991,1422,2457,1847];
requirement=[680,968,932,437,432,480,721,223,328,438,286,672,227,928,265,591,414,671,272,748,625,354,886,738,578,862,380,216,219,267,780,827,715,208,839];
capacity=[799,673,649,240,653,280,254,905,591,971];
